NAME: random-52-20085
TYPE: TSP
COMMENT: size=52 seed=20085
DIMENSION: 106
EDGE_WEIGHT_TYPE: EUC_2D
NODE_COORD_SECTION
+0 595 438
-0 595 438
+1 150 261
-1 472 432
+2 434 134
-2 206 521
+3 37 552
-3 664 322
+4 235 327
-4 500 746
+5 660 294
-5 902 856
+6 835 104
-6 406 579
+7 675 774
-7 144 934
+8 183 104
-8 602 781
+9 433 441
-9 327 746
+10 428 222
-10 847 803
+11 230 352
-11 538 192
+12 871 390
-12 520 40
+13 755 153
-13 675 82
+14 703 897
-14 183 3
+15 27 559
-15 922 711
+16 133 618
-16 830 846
+17 735 98
-17 98 780
+18 420 67
-18 92 974
+19 702 325
-19 260 422
+20 753 491
-20 719 516
+21 559 907
-21 736 197
+22 457 968
-22 79 111
+23 575 47
-23 736 933
+24 288 698
-24 607 319
+25 808 739
-25 139 473
+26 356 223
-26 993 784
+27 92 723
-27 129 872
+28 39 45
-28 125 266
+29 494 284
-29 242 527
+30 31 140
-30 670 993
+31 842 648
-31 66 804
+32 959 851
-32 765 913
+33 677 872
-33 592 596
+34 136 459
-34 964 584
+35 906 352
-35 740 20
+36 757 280
-36 744 500
+37 714 793
-37 580 289
+38 518 351
-38 26 169
+39 950 840
-39 130 247
+40 336 867
-40 212 396
+41 87 820
-41 498 496
+42 700 463
-42 12 654
+43 258 451
-43 471 111
+44 696 204
-44 292 327
+45 785 97
-45 311 151
+46 59 744
-46 257 240
+47 74 70
-47 385 466
+48 949 35
-48 18 642
+49 694 859
-49 234 12
+50 554 434
-50 108 317
+51 61 205
-51 517 1
+52 46 940
-52 804 60
PRECEDENCE_SECTION
+0 -0
+1 -1
+2 -2
+3 -3
+4 -4
+5 -5
+6 -6
+7 -7
+8 -8
+9 -9
+10 -10
+11 -11
+12 -12
+13 -13
+14 -14
+15 -15
+16 -16
+17 -17
+18 -18
+19 -19
+20 -20
+21 -21
+22 -22
+23 -23
+24 -24
+25 -25
+26 -26
+27 -27
+28 -28
+29 -29
+30 -30
+31 -31
+32 -32
+33 -33
+34 -34
+35 -35
+36 -36
+37 -37
+38 -38
+39 -39
+40 -40
+41 -41
+42 -42
+43 -43
+44 -44
+45 -45
+46 -46
+47 -47
+48 -48
+49 -49
+50 -50
+51 -51
+52 -52
EOF
